c This is QMaxSAT 2017 based on 14.07
c This is Glucose 3.0
c This is MiniSat 2.2.0
c WARNING: for repeatability, setting FPU to use double precision
c card = mrwto, comp = 0, pmodel = 0, narr = 12, mct = 76, verb = 0
cr firstCPXsol 0 0 0
c top = 189219
c |  Number of variables:    15138                                            |
c |  Number of clauses:      1184199                                          |
c |  Weight of hard clauses: 189219                                           |
c |  Number of soft clauses: 88200                                            |
c |  Number of unit soft clauses: 0                                           |
c |  Maximum Cardinality (by unit): 2895240      (0           )               |
c last restart ## conflicts  :  3 3885 
o 1206 | cpuTime 0.159209 s
c Sum of weights = 241270
c A number of soft clauses remained = 7350
c MRWTO encoding for Pseudo-Boolean Constraints
c sizeMax=1206
c No.0 Divisor=11	generated by pow1
c No.1 Divisor=11	generated by pow1
c No.2 Divisor=11	generated by pow1
c p0= 11	p1= 11	p2= 11	
c number of digits = 4
c linkingVar[0].size = 11, linkingVar[1].size = 11, linkingVar[2].size = 10, linkingVar[3].size = 1, 
c Pseudo-Boolean Constraints: 140877 variables and 1211875 clauses
c Sum of weights = 241270
c A number of soft clauses remained = 7350
c MRWTO encoding for Pseudo-Boolean Constraints
c sizeMax=1206
c No.0 Divisor=11	generated by pow1
c No.1 Divisor=11	generated by pow1
c No.2 Divisor=11	generated by pow1
c p0= 11	p1= 11	p2= 11	
c number of digits = 4
c linkingVar[0].size = 11, linkingVar[1].size = 11, linkingVar[2].size = 10, linkingVar[3].size = 1, 
c Pseudo-Boolean Constraints: 140877 variables and 1211875 clauses
c Sum of weights = 241270
c A number of soft clauses remained = 7350
c MRWTO encoding for Pseudo-Boolean Constraints
c sizeMax=1206
c No.0 Divisor=11	generated by pow1
c No.1 Divisor=11	generated by pow1
c No.2 Divisor=11	generated by pow1
c p0= 11	p1= 11	p2= 11	
c number of digits = 4
c linkingVar[0].size = 11, linkingVar[1].size = 11, linkingVar[2].size = 10, linkingVar[3].size = 1, 
c Pseudo-Boolean Constraints: 140877 variables and 1211875 clauses
c Sum of weights = 241270
c A number of soft clauses remained = 7350
c MRWTO encoding for Pseudo-Boolean Constraints
c sizeMax=1206
c No.0 Divisor=11	generated by pow1
c No.1 Divisor=11	generated by pow1
c No.2 Divisor=11	generated by pow1
c p0= 11	p1= 11	p2= 11	
c number of digits = 4
c linkingVar[0].size = 11, linkingVar[1].size = 11, linkingVar[2].size = 10, linkingVar[3].size = 1, 
c Pseudo-Boolean Constraints: 140877 variables and 1211875 clauses
c Sum of weights = 241270
c A number of soft clauses remained = 7350
c MRWTO encoding for Pseudo-Boolean Constraints
c sizeMax=1206
c No.0 Divisor=11	generated by pow1
c No.1 Divisor=11	generated by pow1
c No.2 Divisor=11	generated by pow1
c p0= 11	p1= 11	p2= 11	
c number of digits = 4
c linkingVar[0].size = 11, linkingVar[1].size = 11, linkingVar[2].size = 10, linkingVar[3].size = 1, 
c Pseudo-Boolean Constraints: 140877 variables and 1211875 clauses
c Sum of weights = 241270
c A number of soft clauses remained = 7350
c MRWTO encoding for Pseudo-Boolean Constraints
c sizeMax=1206
c No.0 Divisor=11	generated by pow1
c No.1 Divisor=11	generated by pow1
c No.2 Divisor=11	generated by pow1
c p0= 11	p1= 11	p2= 11	
c number of digits = 4
c linkingVar[0].size = 11, linkingVar[1].size = 11, linkingVar[2].size = 10, linkingVar[3].size = 1, 
c Pseudo-Boolean Constraints: 140877 variables and 1211875 clauses
c Sum of weights = 241270
c A number of soft clauses remained = 7350
c MRWTO encoding for Pseudo-Boolean Constraints
c sizeMax=1206
c No.0 Divisor=11	generated by pow1
c No.1 Divisor=11	generated by pow1
c No.2 Divisor=11	generated by pow1
c p0= 11	p1= 11	p2= 11	
c number of digits = 4
c linkingVar[0].size = 11, linkingVar[1].size = 11, linkingVar[2].size = 10, linkingVar[3].size = 1, 
c Pseudo-Boolean Constraints: 140877 variables and 1211875 clauses
c Sum of weights = 241270
c A number of soft clauses remained = 7350
c MRWTO encoding for Pseudo-Boolean Constraints
c sizeMax=1206
c No.0 Divisor=11	generated by pow1
c No.1 Divisor=11	generated by pow1
c No.2 Divisor=11	generated by pow1
c p0= 11	p1= 11	p2= 11	
c number of digits = 4
c linkingVar[0].size = 11, linkingVar[1].size = 11, linkingVar[2].size = 10, linkingVar[3].size = 1, 
c Pseudo-Boolean Constraints: 140877 variables and 1211875 clauses
c Sum of weights = 241270
c A number of soft clauses remained = 7350
c MRWTO encoding for Pseudo-Boolean Constraints
c sizeMax=1206
c No.0 Divisor=11	generated by pow1
c No.1 Divisor=11	generated by pow1
c No.2 Divisor=11	generated by pow1
c p0= 11	p1= 11	p2= 11	
c number of digits = 4
c linkingVar[0].size = 11, linkingVar[1].size = 11, linkingVar[2].size = 10, linkingVar[3].size = 1, 
c Pseudo-Boolean Constraints: 140877 variables and 1211875 clauses
c Sum of weights = 241270
c A number of soft clauses remained = 7350
c MRWTO encoding for Pseudo-Boolean Constraints
c sizeMax=1206
c No.0 Divisor=11	generated by pow1
c No.1 Divisor=11	generated by pow1
c No.2 Divisor=11	generated by pow1
c p0= 11	p1= 11	p2= 11	
c number of digits = 4
c linkingVar[0].size = 11, linkingVar[1].size = 11, linkingVar[2].size = 10, linkingVar[3].size = 1, 
c Pseudo-Boolean Constraints: 140877 variables and 1211875 clauses
c Sum of weights = 241270
c A number of soft clauses remained = 7350
c MRWTO encoding for Pseudo-Boolean Constraints
c sizeMax=1206
c No.0 Divisor=11	generated by pow1
c No.1 Divisor=11	generated by pow1
c No.2 Divisor=11	generated by pow1
c p0= 11	p1= 11	p2= 11	
c number of digits = 4
c linkingVar[0].size = 11, linkingVar[1].size = 11, linkingVar[2].size = 10, linkingVar[3].size = 1, 
c Pseudo-Boolean Constraints: 140877 variables and 1211875 clauses
c Sum of weights = 241270
c A number of soft clauses remained = 7350
c MRWTO encoding for Pseudo-Boolean Constraints
c sizeMax=1206
c No.0 Divisor=11	generated by pow1
c No.1 Divisor=11	generated by pow1
c No.2 Divisor=11	generated by pow1
c p0= 11	p1= 11	p2= 11	
c number of digits = 4
c linkingVar[0].size = 11, linkingVar[1].size = 11, linkingVar[2].size = 10, linkingVar[3].size = 1, 
c Pseudo-Boolean Constraints: 140877 variables and 1211875 clauses
c last restart ## conflicts  :  443 46793 
o 833 | cpuTime 5.25694 s
c last restart ## conflicts  :  350 86483 
o 591 | cpuTime 17.7706 s
c last restart ## conflicts  :  218 18446 
o 394 | cpuTime 23.9353 s
c last restart ## conflicts  :  580 13135 
o 367 | cpuTime 44.2119 s
c last restart ## conflicts  :  162 24378 
o 342 | cpuTime 191.719 s
c last restart ## conflicts  :  162 21841 
o 308 | cpuTime 226.826 s
c last restart ## conflicts  :  45 22332 
o 297 | cpuTime 1138.92 s
c last restart ## conflicts  :  283 21091 
o 265 | cpuTime 1362.81 s
c last restart ## conflicts  :  570 19106 
o 255 | cpuTime 2127.35 s
s UNKNOWN
c Search is stopped by a limit (maybe time-limit)
cr positiVarArr: [ | 67(1->56) | 171(1->73) | 251(1->66) | 295(1->23) | 412(1->53) | 514(1->68) | 602(1->69) | 679(1->59) | 735(1->28) | 809(1->15) | 942(1->61) | 1000(1->32) | 1118(2->63) | 1149(3->7) | 1231(4->2) | 1353(5->37) | 1395(6->1) | 1516(7->26) | 1591(8->14) | 1676(9->12) | 1759(10->8) | 1892(11->54) | 1918(12->1) | 2017(13->5) | 2090(14->1) | 2216(15->30) | 2340(16->67) | 2354(17->1) | 2472(18->25) | 2569(19->35) | 2672(20->51) | 2719(21->11) | 2838(22->43) | 2904(23->22) | 3019(24->50) | 3100(25->44) | 3149(26->6) | 3282(27->52) | 3379(28->62) | 3452(29->48) | 3504(30->13) | 3633(31->55) | 3674(32->9) | 3755(33->3) | 3858(34->19) | 3991(35->65) | 4084(36->71) | 4110(37->10) | 4259(38->72) | 4314(39->40) | 4437(40->76) | 4512(41->64) | 4534(42->1) | 4620(43->1) | 4709(44->1) | 4814(45->18) | 4928(46->45) | 4960(47->1) | 5084(48->27) | 5177(49->33) | 5278(50->47) | 5314(51->1) | 5439(52->34) | 5509(53->17) | 5574(54->1) | 5708(55->42) | 5769(56->16) | 5886(57->46) | 5966(58->39) | 6018(59->4) | 6122(60->21) | 6245(61->57) | 6324(62->49) | 6403(63->41) | 6446(64->1) | 6574(65->38) | 6647(66->24) | 6780(67->70) | 6828(68->31) | 6904(69->20) | 7031(70->60) | 7132(71->74) | 7203(72->58) | 7268(73->36) | 7348(74->29) | 7407(75->1) | 7568(76->75) | ]
cr the 1-th chain: [ 1->56->16->67->70->60->21->11->54->1 ] (#non-depot=8) {#cumul.=9}
cr the 2-th chain: [ 1->73->36->71->74->29->48->27->52->34->19->35->65->38->72->58->39->40->76->75->1 ] (#non-depot=19) {#cumul.=28}
cr the 3-th chain: [ 1->66->24->50->47->1 ] (#non-depot=4) {#cumul.=32}
cr the 4-th chain: [ 1->23->22->43->1 ] (#non-depot=3) {#cumul.=35}
cr the 5-th chain: [ 1->53->17->1 ] (#non-depot=2) {#cumul.=37}
cr the 6-th chain: [ 1->68->31->55->42->1 ] (#non-depot=4) {#cumul.=41}
cr the 7-th chain: [ 1->69->20->51->1 ] (#non-depot=3) {#cumul.=44}
cr the 8-th chain: [ 1->59->4->2->63->41->64->1 ] (#non-depot=6) {#cumul.=50}
cr the 9-th chain: [ 1->28->62->49->33->3->7->26->6->1 ] (#non-depot=8) {#cumul.=58}
cr the 10-th chain: [ 1->15->30->13->5->37->10->8->14->1 ] (#non-depot=8) {#cumul.=66}
cr the 11-th chain: [ 1->61->57->46->45->18->25->44->1 ] (#non-depot=7) {#cumul.=73}
cr the 12-th chain: [ 1->32->9->12->1 ] (#non-depot=3) {#cumul.=76}
c Latest Answer = 0 by 10 loops
c restarts              : 27148
c conflicts             : 4530895        (1260 /sec)
c decisions             : 114605044      (0.00 % random) (31876 /sec)
c propagations          : 35718710001    (9934702 /sec)
c conflict literals     : 749464301      (35.85 % deleted)
c Memory used           : 2198.00 MB
c CPU time              : 3595.35 s
